852,461
417,42
321,46
681,706
1095,341
560,318
654,459
681,316
857,648
624,424
627,300
935,660
733,478
567,443
593,527
945,770
468,298
858,378
1006,457
803,166
749,539
616,820
453,332
829,383
892,115
385,452
875,547
761,366
628,433
776,593
705,423
830,700
